##TITLE=Nitric oxide
##JCAMP-DX=4.24
##DATA TYPE=MASS SPECTRUM
##OWNER=NIST Mass Spectrometry Data Center
Collection (C) 2014 copyright by the U.S. Secretary of Commerce
on behalf of the United States of America. All rights reserved.
##CAS REGISTRY NO=10102-43-9
##$NIST MASS SPEC NO=31
##MOLFORM=N O
##MW=30
##$NIST SOURCE=MSDC
##XUNITS=M/Z
##YUNITS=RELATIVE INTENSITY
##XFACTOR=1
##YFACTOR=1
##FIRSTX=14
##LASTX=32
##FIRSTY=751
##MAXX=32
##MINX=14
##MAXY=9999
##MINY=20
##NPOINTS=6
##PEAK TABLE=(XY..XY)
14,751 15,240 16,150 30,9999
31,40 32,20
##GROUP=Air
##END=
