##TITLE=Pyridine
##JCAMP-DX=4.24
##DATA TYPE=MASS SPECTRUM
##ORIGIN=Japan AIST/NIMC Database- Spectrum MS-NW- 79
##OWNER=NIST Mass Spectrometry Data Center
Collection (C) 2014 copyright by the U.S. Secretary of Commerce
on behalf of the United States of America. All rights reserved.
##CAS REGISTRY NO=110-86-1
##$NIST MASS SPEC NO=227742
##MOLFORM=C5 H5 N
##MW=79
##$NIST SOURCE=MSDC
##XUNITS=M/Z
##YUNITS=RELATIVE INTENSITY
##XFACTOR=1
##YFACTOR=1
##FIRSTX=25
##LASTX=81
##FIRSTY=40
##MAXX=81
##MINX=25
##MAXY=9999
##MINY=10
##NPOINTS=27
##PEAK TABLE=(XY..XY)
25,40 26,469 27,139 28,40
36,10 37,139 38,179 39,599
40,50 48,30 49,259 50,1359
51,2229 52,5599 53,609 54,20
62,10 63,10 64,30 74,20
75,159 76,119 77,30 78,1129
79,9999 80,629 81,10
##GROUP=Fluorocarbons##END=
