##TITLE=Nonane
##JCAMP-DX=4.24
##DATA TYPE=MASS SPECTRUM
##ORIGIN=Japan AIST/NIMC Database- Spectrum MS-NW-3673
##OWNER=NIST Mass Spectrometry Data Center
Collection (C) 2014 copyright by the U.S. Secretary of Commerce
on behalf of the United States of America. All rights reserved.
##CAS REGISTRY NO=111-84-2
##$NIST MASS SPEC NO=228006
##MOLFORM=C9 H20
##MW=128
##$NIST SOURCE=MSDC
##XUNITS=M/Z
##YUNITS=RELATIVE INTENSITY
##XFACTOR=1
##YFACTOR=1
##FIRSTX=15
##LASTX=129
##FIRSTY=50
##MAXX=129
##MINX=15
##MAXY=9999
##MINY=10
##NPOINTS=42
##PEAK TABLE=(XY..XY)
15,50 26,50 27,1199 28,99
29,2069 30,50 37,10 38,20
39,699 40,119 41,3059 42,1209
43,9999 44,339 50,20 51,40
52,20 53,129 54,80 55,1079
56,1709 57,7619 58,369 65,10
67,40 68,20 69,259 70,1239
71,2239 72,139 77,10 81,10
83,30 84,689 85,2599 86,179
97,20 98,329 99,579 100,40
128,439 129,50##GROUP=Hydrocarbons

##END=
