##TITLE=13-Docosenamide, (Z)-
##JCAMP-DX=4.24
##DATA TYPE=MASS SPECTRUM
##ORIGIN=NIST Mass Spectrometry Data Center, 1994
##OWNER=NIST Mass Spectrometry Data Center
Collection (C) 2014 copyright by the U.S. Secretary of Commerce
on behalf of the United States of America. All rights reserved.
##CAS REGISTRY NO=112-84-5
##$NIST MASS SPEC NO=133461
##MOLFORM=C22 H43 N O
##MW=337
##$NIST SOURCE=MSDC
##XUNITS=M/Z
##YUNITS=RELATIVE INTENSITY
##XFACTOR=1
##YFACTOR=1
##FIRSTX=27
##LASTX=339
##FIRSTY=374
##MAXX=339
##MINX=27
##MAXY=9999
##MINY=32
##NPOINTS=166
##PEAK TABLE=(XY..XY)
27,374 28,32 29,1057 30,77
39,378 41,3687 42,752 43,3307
44,1656 53,399 54,1098 55,5226
56,1060 57,1933 58,399 59,9999
60,1687 61,70 65,168 67,1850
68,773 69,2743 70,664 71,70
72,7754 73,912 77,157 78,60
79,433 80,264 81,1526 82,930
83,1850 84,716 85,396 86,1166
87,171 91,131 92,50 93,207
94,275 95,1365 96,998 97,1696
98,1551 99,436 100,752 101,341
105,102 107,216 108,244 109,784
110,712 111,912 112,2237 113,565
114,974 115,563 119,125 120,76
121,287 122,486 123,653 124,504
125,465 126,3141 127,523 128,1066
129,143 133,144 134,200 135,334
136,333 137,474 138,419 139,288
140,673 141,220 142,321 147,134
148,205 149,232 150,155 151,350
152,505 153,189 154,676 155,170
156,266 157,71 161,120 163,121
164,140 165,261 166,296 167,108
168,336 169,79 170,270 175,85
178,83 179,138 180,157 181,81
182,282 183,61 184,385 192,105
193,122 194,155 195,84 196,195
198,204 206,99 207,171 208,164
210,165 212,218 220,117 221,274
222,232 223,91 224,196 226,197
234,110 235,276 236,379 237,105
238,244 239,94 240,622 241,108
248,93 249,349 250,173 251,75
252,183 253,75 254,351 255,124
262,130 263,430 264,177 266,162
268,119 276,223 277,465 278,405
279,78 280,176 282,162 290,95
291,337 292,113 293,78 294,794
295,188 296,105 308,225 319,263
320,1234 321,319 322,92 337,1820
338,439 339,76##GROUP=Hydrocarbons
##END=
