##TITLE=Anthracene
##JCAMP-DX=4.24
##DATA TYPE=MASS SPECTRUM
##ORIGIN=Japan AIST/NIMC Database- Spectrum MS-NW- 132
##OWNER=NIST Mass Spectrometry Data Center
Collection (C) 2014 copyright by the U.S. Secretary of Commerce
on behalf of the United States of America. All rights reserved.
##CAS REGISTRY NO=120-12-7
##$NIST MASS SPEC NO=228201
##MOLFORM=C14 H10
##MW=178
##$NIST SOURCE=MSDC
##XUNITS=M/Z
##YUNITS=RELATIVE INTENSITY
##XFACTOR=1
##YFACTOR=1
##FIRSTX=27
##LASTX=181
##FIRSTY=20
##MAXX=181
##MINX=27
##MAXY=9999
##MINY=10
##NPOINTS=62
##PEAK TABLE=(XY..XY)
27,20 28,10 38,30 39,109
50,129 51,129 52,30 61,40
62,129 63,289 64,20 65,20
69,20 73,10 74,219 75,299
76,619 77,80 78,10 83,50
85,30 86,99 87,169 88,439
89,759 90,10 98,119 99,90
100,50 101,50 102,60 110,40
111,50 113,60 114,20 115,50
122,40 123,20 124,20 125,50
126,149 127,60 128,80 137,30
138,30 139,209 140,80 149,70
150,419 151,629 152,689 153,80
163,50 164,20 174,129 175,199
176,1409 177,799 178,9999 179,1569
180,149 181,30

##GROUP=Hydrocarbons##END=
