##TITLE=Malathion
##JCAMP-DX=4.24
##DATA TYPE=MASS SPECTRUM
##ORIGIN=NIST Mass Spectrometry Data Center, 1990.
##OWNER=NIST Mass Spectrometry Data Center
Collection (C) 2014 copyright by the U.S. Secretary of Commerce
on behalf of the United States of America. All rights reserved.
##CAS REGISTRY NO=121-75-5
##$NIST MASS SPEC NO=118987
##MOLFORM=C10 H19 O6 P S2
##MW=330
##$NIST SOURCE=MSDC
##XUNITS=M/Z
##YUNITS=RELATIVE INTENSITY
##XFACTOR=1
##YFACTOR=1
##FIRSTX=12
##LASTX=330
##FIRSTY=8
##MAXX=330
##MINX=12
##MAXY=9999
##MINY=7
##NPOINTS=194
##PEAK TABLE=(XY..XY)
12,8 13,23 14,73 15,1140
16,20 17,17 18,67 19,68
26,456 27,3319 28,559 29,7465
30,266 31,553 33,55 34,20
35,39 36,13 37,7 39,24
41,85 42,145 43,473 44,191
45,1308 46,225 47,2181 48,86
49,140 50,32 51,14 52,19
53,110 54,157 55,2165 56,139
57,91 58,594 59,963 60,300
61,269 62,698 63,2414 64,382
65,118 66,27 69,32 71,319
72,313 73,554 74,65 75,184
76,42 77,158 78,27 79,2334
80,115 81,97 82,46 83,21
84,16 85,109 86,249 87,546
88,60 89,177 90,34 91,85
92,16 93,9323 94,314 95,536
96,295 97,63 98,16 99,3179
100,612 101,342 102,70 103,463
104,159 105,120 106,22 107,132
109,158 110,82 111,520 112,86
113,94 114,97 115,186 116,22
117,393 118,53 119,67 121,104
125,9999 126,964 127,8674 128,1062
129,293 130,53 131,1054 132,369
133,207 134,35 135,29 137,21
139,91 141,41 143,2002 144,223
145,1156 146,148 147,536 148,47
149,83 150,10 151,16 153,22
154,14 155,60 156,10 157,1367
158,3998 159,1137 160,511 161,168
162,31 163,30 167,11 168,12
169,42 170,69 171,259 172,11
173,9370 174,892 175,158 176,20
177,44 178,18 179,9 180,13
181,19 182,72 183,113 184,157
185,24 186,22 187,59 188,77
189,83 190,12 191,15 193,14
195,30 196,21 197,32 199,65
200,25 201,15 203,12 204,14
205,38 210,108 211,596 212,72
213,60 215,8 220,8 222,9
223,26 224,14 225,41 227,184
228,54 229,28 238,176 239,20
240,18 252,18 253,10 255,289
256,721 257,212 258,88 259,20
271,14 284,361 285,442 286,77
287,46 330,13##GROUP=Oil Additives
##END=
