##TITLE=Decane
##JCAMP-DX=4.24
##DATA TYPE=MASS SPECTRUM
##ORIGIN=NIST Mass Spectrometry Data Center, 1990.
##OWNER=NIST Mass Spectrometry Data Center
Collection (C) 2014 copyright by the U.S. Secretary of Commerce
on behalf of the United States of America. All rights reserved.
##CAS REGISTRY NO=124-18-5
##$NIST MASS SPEC NO=114147
##MOLFORM=C10 H22
##MW=142
##$NIST SOURCE=MSDC
##XUNITS=M/Z
##YUNITS=RELATIVE INTENSITY
##XFACTOR=1
##YFACTOR=1
##FIRSTX=14
##LASTX=143
##FIRSTY=80
##MAXX=143
##MINX=14
##MAXY=9999
##MINY=39
##NPOINTS=43
##PEAK TABLE=(XY..XY)
14,80 15,45 16,50 27,1654
29,2498 30,71 39,1690 41,6395
42,2049 43,8029 44,348 50,46
51,144 52,73 53,539 54,330
55,2484 56,2702 57,9999 58,465
65,109 66,41 67,193 68,132
69,801 70,2000 71,4436 72,227
77,55 79,39 82,48 83,212
84,1278 85,2939 86,189 98,715
99,830 100,78 112,265 113,460
114,42 142,740 143,90##GROUP=Hydrocarbons
##END=
