##TITLE=1-Propanol, 2,3-dibromo-, phosphate (3:1)
##JCAMP-DX=4.24
##DATA TYPE=MASS SPECTRUM
##OWNER=NIST Mass Spectrometry Data Center
Collection (C) 2014 copyright by the U.S. Secretary of Commerce
on behalf of the United States of America. All rights reserved.
##CAS REGISTRY NO=126-72-7
##$NIST MASS SPEC NO=32646
##MOLFORM=C9 H15 Br6 O4 P
##MW=692
##$NIST SOURCE=MSDC
##XUNITS=M/Z
##YUNITS=RELATIVE INTENSITY
##XFACTOR=1
##YFACTOR=1
##FIRSTX=15
##LASTX=339
##FIRSTY=103
##MAXX=339
##MINX=15
##MAXY=9999
##MINY=39
##NPOINTS=100
##PEAK TABLE=(XY..XY)
15,103 17,103 18,411 26,272
27,830 28,1652 29,651 31,866
32,492 37,206 38,360 39,2812
40,242 41,1703 42,139 43,308
44,206 45,294 47,125 49,125
55,257 56,73 57,1300 63,169
65,176 71,110 73,176 75,602
77,352 78,88 79,330 80,198
81,39 82,220 83,73 91,184
92,81 93,1278 94,103 95,1255
99,441 104,95 105,573 106,1167
107,1982 108,1344 109,1079 110,250
111,75 117,103 119,4280 120,316
121,4156 122,316 123,389 125,1065
135,125 136,624 137,1703 138,690
139,830 151,595 155,254 157,1197
158,73 159,323 163,448 165,295
167,220 171,95 173,132 175,154
177,74 185,206 187,301 189,152
198,264 199,5256 200,705 201,9999
202,1609 203,4838 204,184 217,352
219,345 229,316 231,565 233,242
243,404 245,418 255,264 257,294
259,51 321,95 323,338 325,352
327,95 335,147 337,308 339,154
##GROUP=Other
##END=
