##TITLE=Phenol, 2,6-bis(1,1-dimethylethyl)-
##JCAMP-DX=4.24
##DATA TYPE=MASS SPECTRUM
##ORIGIN=Japan AIST/NIMC Database- Spectrum MS-NW-1847
##OWNER=NIST Mass Spectrometry Data Center
Collection (C) 2014 copyright by the U.S. Secretary of Commerce
on behalf of the United States of America. All rights reserved.
##CAS REGISTRY NO=128-39-2
##$NIST MASS SPEC NO=228978
##MOLFORM=C14 H22 O
##MW=206
##$NIST SOURCE=MSDC
##XUNITS=M/Z
##YUNITS=RELATIVE INTENSITY
##XFACTOR=1
##YFACTOR=1
##FIRSTX=14
##LASTX=208
##FIRSTY=20
##MAXX=208
##MINX=14
##MAXY=9999
##MINY=10
##NPOINTS=129
##PEAK TABLE=(XY..XY)
14,20 15,40 16,20 17,10
18,20 26,30 27,229 28,149
29,589 30,10 37,10 38,30
39,489 40,70 41,1309 42,60
43,129 44,149 45,30 46,30
50,60 51,229 52,119 53,199
54,20 55,659 56,159 57,2459
58,119 59,30 60,349 62,20
63,109 64,109 65,239 66,129
67,90 69,149 70,10 71,20
72,80 73,229 74,709 75,50
76,40 77,359 78,90 79,189
80,60 81,30 83,10 87,80
88,419 89,70 90,20 91,869
92,90 93,50 94,80 95,60
101,20 102,40 103,119 104,40
105,359 106,50 107,349 108,40
109,30 115,479 116,189 117,329
118,40 119,209 120,30 121,119
122,10 123,20 127,90 128,269
129,209 130,70 131,1449 132,179
133,149 134,40 135,349 136,30
139,30 140,10 141,149 142,80
143,119 144,30 145,189 146,50
147,389 148,60 149,139 150,90
151,10 153,10 155,10 156,10
157,30 158,40 159,30 160,10
161,99 162,10 163,959 164,119
165,10 168,10 173,50 174,10
175,419 176,60 177,20 189,40
190,20 191,9999 192,1459 193,119
204,10 205,10 206,2009 207,319
208,30
##GROUP=Hydrocarbons##END=
