##TITLE=Heptane
##JCAMP-DX=4.24
##DATA TYPE=MASS SPECTRUM
##ORIGIN=D.HENNEBERG, MAX-PLANCK INSTITUTE, MULHEIM, WEST GERMANY
##OWNER=NIST Mass Spectrometry Data Center
Collection (C) 2014 copyright by the U.S. Secretary of Commerce
on behalf of the United States of America. All rights reserved.
##CAS REGISTRY NO=142-82-5
##$NIST MASS SPEC NO=61276
##MOLFORM=C7 H16
##MW=100
##$NIST SOURCE=MSDC
##XUNITS=M/Z
##YUNITS=RELATIVE INTENSITY
##XFACTOR=1
##YFACTOR=1
##FIRSTX=2
##LASTX=101
##FIRSTY=69
##MAXX=101
##MINX=2
##MAXY=9999
##MINY=5
##NPOINTS=43
##PEAK TABLE=(XY..XY)
2,69 12,5 13,18 14,90
15,670 16,20 25,15 26,438
27,4587 28,957 29,4854 30,115
39,2292 40,395 41,5635 42,2561
43,9999 44,347 45,7 50,71
51,125 52,48 53,238 54,83
55,1192 56,2651 57,4745 58,217
62,13 63,23 65,27 66,10
67,36 68,7 69,78 70,1785
71,4516 72,258 84,20 85,204
86,16 100,1261 101,96##GROUP=Hydrocarbons

##END=
