##TITLE=Diphenylpyraline
##JCAMP-DX=4.24
##DATA TYPE=MASS SPECTRUM
##ORIGIN=Virginia Division of Forensic Science
##OWNER=NIST Mass Spectrometry Data Center
Collection (C) 2014 copyright by the U.S. Secretary of Commerce
on behalf of the United States of America. All rights reserved.
##CAS REGISTRY NO=147-20-6
##$NIST MASS SPEC NO=250708
##MOLFORM=C19 H23 N O
##MW=281
##$NIST SOURCE=MSDC
##XUNITS=M/Z
##YUNITS=RELATIVE INTENSITY
##XFACTOR=1
##YFACTOR=1
##FIRSTX=15
##LASTX=282
##FIRSTY=70
##MAXX=282
##MINX=15
##MAXY=9999
##MINY=10
##NPOINTS=124
##PEAK TABLE=(XY..XY)
15,70 16,10 26,30 27,240
28,230 29,510 30,230 31,10
37,10 38,20 39,370 40,40
41,340 42,2442 43,1631 44,1751
45,70 47,10 50,140 51,550
52,100 53,160 54,150 55,1441
56,380 57,1681 58,500 59,20
60,10 61,10 62,40 63,170
64,30 65,130 66,10 67,50
68,190 70,3272 71,660 72,160
73,10 74,50 75,60 76,130
77,1181 78,260 79,170 80,60
81,80 82,630 83,280 84,220
85,90 86,50 88,50 89,150
90,30 91,120 92,10 93,10
94,150 96,2852 97,900 98,6095
99,9999 100,700 102,120 103,10
105,780 106,80 107,20 110,10
111,10 112,80 114,4974 115,680
116,60 117,20 118,10 120,10
125,10 126,60 127,60 128,220
129,40 130,10 131,10 132,10
137,10 138,10 139,230 140,30
141,110 142,10 146,10 147,10
150,20 151,200 152,1711 153,320
154,60 155,50 156,10 160,10
161,10 162,20 163,180 164,370
165,3222 166,1080 167,3733 168,610
169,40 174,70 175,10 178,10
179,10 181,30 182,30 183,10
184,10 280,70 281,20 282,10
##GROUP=Hydrocarbons
##END=
