##TITLE=4-Aminobenzoic acid, 2TMS derivative
##JCAMP-DX=4.24
##DATA TYPE=MASS SPECTRUM
##ORIGIN=NIST Mass Spectrometry Data Center, 2010
##OWNER=NIST Mass Spectrometry Data Center
Collection (C) 2014 copyright by the U.S. Secretary of Commerce
on behalf of the United States of America. All rights reserved.
##CAS REGISTRY NO=18406-05-8
##$NIST MASS SPEC NO=375134
##MOLFORM=C13 H23 N O2 Si2
##MW=281
##$NIST SOURCE=MSDC
##XUNITS=M/Z
##YUNITS=RELATIVE INTENSITY
##XFACTOR=1
##YFACTOR=1
##FIRSTX=15
##LASTX=285
##FIRSTY=30
##MAXX=285
##MINX=15
##MAXY=9999
##MINY=10
##NPOINTS=188
##PEAK TABLE=(XY..XY)
15,30 26,10 27,20 29,80
30,10 31,40 38,10 39,70
40,10 41,30 42,40 43,500
44,280 45,1611 46,120 47,210
48,10 49,20 50,30 51,50
52,40 53,90 54,50 55,90
56,40 57,80 58,150 59,340
60,60 61,90 63,120 64,140
65,200 66,60 67,70 68,40
69,80 70,140 71,60 72,140
73,9999 74,991 75,921 76,140
77,310 78,70 79,150 80,40
81,50 82,40 83,120 84,120
85,50 86,30 87,30 88,220
90,110 91,450 92,320 93,130
94,100 95,120 96,110 97,50
98,50 99,20 100,20 101,20
102,50 103,110 104,150 105,190
106,190 107,100 108,110 109,40
110,110 113,10 114,10 115,50
116,30 117,140 118,330 119,540
120,911 121,350 122,130 123,80
125,1932 128,20 129,20 130,70
131,160 132,601 133,300 134,901
135,190 136,80 137,20 138,10
141,10 142,20 143,20 144,20
145,30 146,330 147,390 148,901
149,440 150,540 151,90 152,20
153,10 154,10 155,10 156,10
157,10 158,20 159,10 160,70
161,30 162,410 163,110 164,160
165,60 166,20 167,10 168,10
169,10 174,10 175,10 176,981
177,170 178,581 179,120 180,50
181,20 182,10 189,10 190,160
191,70 192,5625 193,1161 194,410
195,80 196,20 204,10 205,10
206,410 207,170 208,120 209,60
210,20 218,10 219,10 220,50
221,30 222,3393 223,791 224,320
225,50 226,10 232,10 234,10
235,10 236,30 237,10 250,80
251,20 252,10 261,10 263,10
264,30 265,30 266,5575 267,1351
268,571 269,90 270,20 277,20
278,10 279,40 280,120 281,4164
282,1111 283,440 284,80 285,10
##GROUP=Hydrocarbons
##END=
