##TITLE=9-Octadecenoic acid, methyl ester, (E)-
##JCAMP-DX=4.24
##DATA TYPE=MASS SPECTRUM
##ORIGIN=Japan AIST/NIMC Database- Spectrum MS-IW-4103
##OWNER=NIST Mass Spectrometry Data Center
Collection (C) 2014 copyright by the U.S. Secretary of Commerce
on behalf of the United States of America. All rights reserved.
##CAS REGISTRY NO=1937-62-8
##$NIST MASS SPEC NO=233340
##MOLFORM=C19 H36 O2
##MW=296
##$NIST SOURCE=MSDC
##XUNITS=M/Z
##YUNITS=RELATIVE INTENSITY
##XFACTOR=1
##YFACTOR=1
##FIRSTX=15
##LASTX=299
##FIRSTY=319
##MAXX=299
##MINX=15
##MAXY=9999
##MINY=10
##NPOINTS=226
##PEAK TABLE=(XY..XY)
15,319 18,20 26,30 27,509
28,119 29,1639 30,40 31,80
33,10 38,10 39,529 40,109
41,5419 42,1139 43,5679 44,209
45,249 50,10 51,30 52,30
53,459 54,2229 55,9999 56,3449
57,4669 58,229 59,1599 60,60
61,30 62,10 65,129 66,199
67,3989 68,3469 69,9549 70,2869
71,1909 72,209 73,669 74,9019
75,1359 76,90 77,139 78,199
79,889 80,779 81,4739 82,3839
83,8399 84,7149 85,1629 86,149
87,6359 88,589 89,50 90,10
91,359 92,129 93,679 94,959
95,3589 96,6499 97,7509 98,6309
99,869 100,169 101,1259 102,139
103,20 104,20 105,289 106,119
107,599 108,699 109,2289 110,3749
111,4059 112,1529 113,569 114,769
115,1249 116,199 117,40 118,50
119,609 120,239 121,929 122,429
123,2739 124,2109 125,2199 126,499
127,579 128,899 129,829 130,239
131,40 132,30 133,589 134,579
135,889 136,309 137,1769 138,1649
139,1359 140,249 141,1159 142,269
143,799 144,129 145,30 146,10
147,529 148,499 149,619 150,249
151,1239 152,1499 153,919 154,159
155,339 156,70 157,299 158,70
159,20 161,319 162,159 163,319
164,249 165,819 166,1209 167,589
168,129 169,499 170,80 171,239
172,50 173,10 175,219 176,80
177,159 178,109 179,469 180,2139
181,589 182,119 183,289 184,50
185,189 186,60 187,20 189,149
190,50 191,99 192,60 193,359
194,429 195,169 196,50 197,90
198,20 199,239 200,119 201,20
203,80 204,30 205,40 206,40
207,369 208,309 209,139 210,50
211,50 212,20 213,199 214,119
215,20 217,50 218,20 219,10
220,869 221,739 222,2769 223,659
224,70 225,30 226,10 227,70
228,70 229,10 231,10 233,10
234,10 235,429 236,359 237,60
238,10 239,40 240,10 241,40
242,10 245,30 246,439 247,319
248,60 249,80 250,20 253,159
254,30 255,50 256,10 262,10
263,60 264,5499 265,2619 266,419
267,99 268,20 278,90 279,30
294,20 295,10 296,849 297,239
298,70 299,10##GROUP=Hydrocarbons##END=
