##TITLE=Mecarbam
##JCAMP-DX=4.24
##DATA TYPE=MASS SPECTRUM
##ORIGIN=NIST Mass Spectrometry Data Center, 1998.
##OWNER=NIST Mass Spectrometry Data Center
Collection (C) 2014 copyright by the U.S. Secretary of Commerce
on behalf of the United States of America. All rights reserved.
##CAS REGISTRY NO=2595-54-2
##$NIST MASS SPEC NO=291789
##MOLFORM=C10 H20 N O5 P S2
##MW=329
##$NIST SOURCE=MSDC
##XUNITS=M/Z
##YUNITS=RELATIVE INTENSITY
##XFACTOR=1
##YFACTOR=1
##FIRSTX=14
##LASTX=332
##FIRSTY=40
##MAXX=332
##MINX=14
##MAXY=9999
##MINY=10
##NPOINTS=203
##PEAK TABLE=(XY..XY)
14,40 15,210 16,20 25,20
26,230 27,2190 28,740 29,7339
30,840 31,430 32,270 33,20
34,10 35,30 39,20 40,20
41,160 42,2760 43,950 44,710
45,1840 46,1280 47,1580 48,230
49,70 54,120 55,760 56,1290
57,250 58,4110 59,420 60,260
61,290 62,100 63,940 64,200
65,4540 66,40 67,30 68,10
69,20 70,60 71,30 72,260
73,610 74,970 75,630 76,1330
77,120 78,190 79,280 80,470
81,330 82,70 83,30 84,30
85,10 86,3190 87,1230 88,710
89,170 90,100 91,270 92,50
93,2650 94,150 95,350 96,30
97,9999 98,130 99,520 100,110
101,80 102,590 103,240 104,1480
105,140 106,160 107,80 108,110
109,310 110,150 111,70 112,440
113,250 114,190 115,930 116,3540
117,260 118,80 119,60 120,220
121,3180 122,180 123,130 124,60
125,5329 126,280 127,390 128,1210
129,3300 130,110 131,9649 132,1890
133,570 134,170 135,20 136,20
137,90 138,90 139,110 140,130
141,150 142,350 143,1300 144,1290
145,1040 146,170 147,80 148,850
149,200 150,90 151,30 152,20
153,3190 154,300 155,270 156,110
157,920 158,140 159,5179 160,4030
161,590 162,240 163,40 164,20
165,30 166,50 167,30 168,100
169,70 170,270 171,1140 172,100
173,80 174,50 175,30 176,220
177,700 178,100 179,50 180,50
182,90 183,90 184,170 185,360
186,230 187,80 188,40 191,30
192,30 193,10 195,30 196,190
197,20 198,1050 199,530 200,140
201,50 202,50 206,1100 207,90
208,60 209,10 210,20 211,40
212,70 224,70 225,10 226,1070
227,840 228,170 229,80 240,10
252,250 253,30 254,20 255,10
256,50 268,70 282,30 283,120
284,170 285,30 286,20 296,1240
297,140 298,70 328,10 329,2140
330,270 331,220 332,30
##GROUP=Oil Additives
##END=
