##TITLE=Azinphos-ethyl
##JCAMP-DX=4.24
##DATA TYPE=MASS SPECTRUM
##ORIGIN=ACCUSTANDARD Chemicals / NIST MS Data Center.
##OWNER=NIST Mass Spectrometry Data Center
Collection (C) 2014 copyright by the U.S. Secretary of Commerce
on behalf of the United States of America. All rights reserved.
##CAS REGISTRY NO=2642-71-9
##$NIST MASS SPEC NO=125578
##MOLFORM=C12 H16 N3 O3 P S2
##MW=345
##$NIST SOURCE=MSDC
##XUNITS=M/Z
##YUNITS=RELATIVE INTENSITY
##XFACTOR=1
##YFACTOR=1
##FIRSTX=15
##LASTX=345
##FIRSTY=73
##MAXX=345
##MINX=15
##MAXY=9999
##MINY=2
##NPOINTS=163
##PEAK TABLE=(XY..XY)
15,73 16,9 17,4 25,16
26,123 27,796 28,654 29,1269
30,49 31,51 32,58 33,13
35,20 37,40 38,72 39,215
40,24 41,34 42,32 43,120
44,22 45,375 46,104 47,328
48,53 49,13 50,1048 51,1288
52,135 53,66 54,15 56,183
57,18 58,35 59,48 60,70
61,80 62,73 63,356 64,255
65,1606 66,35 67,15 69,66
72,11 73,23 74,223 75,392
76,1816 77,6810 78,573 79,83
80,116 81,56 82,49 83,21
84,13 87,16 88,26 89,72
90,219 91,63 92,118 93,399
95,117 97,1752 98,33 99,83
102,348 104,2819 105,2329 106,191
107,38 108,153 109,248 110,36
111,33 112,195 113,148 114,46
115,28 116,31 118,22 119,59
120,67 121,464 122,33 123,20
124,20 125,399 126,33 127,48
128,20 129,1418 130,94 131,20
132,9999 133,923 134,109 135,73
136,226 137,188 138,34 139,42
140,32 141,54 142,57 143,19
145,7 146,28 147,27 148,102
149,41 150,15 151,21 153,133
154,253 155,50 156,7 157,387
158,43 159,7 160,7971 161,792
162,62 163,15 164,360 165,46
166,43 167,17 171,19 180,29
181,14 182,9 183,18 184,15
185,65 186,88 187,26 188,12
192,12 193,15 196,10 197,5
198,108 199,24 200,12 214,18
215,24 226,22 227,2 228,4
229,13 233,18 243,11 244,15
284,32 285,14 288,13 289,15
300,27 316,12 345,16##GROUP=Other
##END=
