##TITLE=6-Octadecenoic acid, methyl ester, (Z)-
##JCAMP-DX=4.24
##DATA TYPE=MASS SPECTRUM
##ORIGIN=NIST Mass Spectrometry Data Center
##OWNER=NIST Mass Spectrometry Data Center
Collection (C) 2014 copyright by the U.S. Secretary of Commerce
on behalf of the United States of America. All rights reserved.
##CAS REGISTRY NO=2777-58-4
##$NIST MASS SPEC NO=333217
##MOLFORM=C19 H36 O2
##MW=296
##$NIST SOURCE=MSDC
##XUNITS=M/Z
##YUNITS=RELATIVE INTENSITY
##XFACTOR=1
##YFACTOR=1
##FIRSTX=15
##LASTX=298
##FIRSTY=160
##MAXX=298
##MINX=15
##MAXY=9999
##MINY=10
##NPOINTS=214
##PEAK TABLE=(XY..XY)
15,160 26,20 27,731 28,210
29,1972 30,50 31,60 33,20
38,20 39,1211 40,280 41,7687
42,1281 43,7166 44,280 45,240
46,10 47,10 48,10 50,20
51,90 52,90 53,1211 54,2953
55,9999 56,2032 57,3863 58,220
59,2943 60,110 61,50 62,10
63,20 64,20 65,440 66,350
67,5265 68,3133 69,5085 70,1371
71,1621 72,210 73,510 74,7557
75,1061 76,70 77,490 78,210
79,2142 80,1311 81,5565 82,3203
83,4954 84,6406 85,1551 86,130
87,4014 88,440 89,40 90,10
91,561 92,160 93,851 94,901
95,4284 96,6306 97,5565 98,4444
99,691 100,200 101,1001 102,110
103,30 104,10 105,220 106,120
107,390 108,460 109,1832 110,2983
111,2652 112,901 113,581 114,631
115,871 116,120 117,40 118,40
119,460 120,170 121,571 122,240
123,2452 124,1361 125,1121 126,250
127,540 128,631 129,430 130,130
131,30 132,20 133,340 134,360
135,470 136,160 137,1151 138,891
139,530 140,120 141,891 142,180
143,350 144,50 145,10 146,10
147,210 148,260 149,240 150,120
151,651 152,761 153,290 154,50
155,190 156,50 157,120 158,20
159,10 161,140 162,70 163,120
164,120 165,350 166,611 167,190
168,50 169,330 170,50 171,90
172,20 173,10 175,80 176,30
177,60 178,50 179,180 180,1231
181,250 182,50 183,170 184,20
185,50 186,20 187,10 189,50
190,20 191,30 192,20 193,140
194,180 195,50 196,10 197,30
198,10 199,100 200,60 201,10
203,20 204,10 205,20 206,20
207,130 208,100 209,50 210,20
211,10 213,90 214,50 215,10
217,20 218,10 220,360 221,310
222,1301 223,290 224,30 225,10
227,30 228,20 229,10 233,10
235,180 236,140 237,30 239,10
241,20 245,10 246,130 247,150
248,30 249,30 250,10 253,70
254,10 255,10 264,1581 265,701
266,110 267,30 278,20 296,300
297,60 298,10##GROUP=Hydrocarbons##END=
