##TITLE=Disulfoton
##JCAMP-DX=4.24
##DATA TYPE=MASS SPECTRUM
##ORIGIN=NIST Mass Spectrometry Data Center, 1990.
##OWNER=NIST Mass Spectrometry Data Center
Collection (C) 2014 copyright by the U.S. Secretary of Commerce
on behalf of the United States of America. All rights reserved.
##CAS REGISTRY NO=298-04-4
##$NIST MASS SPEC NO=118988
##MOLFORM=C8 H19 O2 P S3
##MW=274
##$NIST SOURCE=MSDC
##XUNITS=M/Z
##YUNITS=RELATIVE INTENSITY
##XFACTOR=1
##YFACTOR=1
##FIRSTX=12
##LASTX=278
##FIRSTY=11
##MAXX=278
##MINX=12
##MAXY=9999
##MINY=2
##NPOINTS=146
##PEAK TABLE=(XY..XY)
12,11 13,10 14,28 15,157
16,2 24,6 25,33 26,304
27,2438 28,495 29,3882 30,99
31,57 32,22 33,35 34,58
35,473 36,11 37,24 39,30
41,131 42,35 43,182 44,11
45,1033 46,348 47,1213 48,109
49,47 50,8 53,16 54,26
55,217 57,51 58,318 59,1248
60,3193 61,3117 62,300 63,436
64,390 65,1793 66,58 67,19
71,10 73,153 75,547 76,61
77,48 78,40 79,113 80,184
81,135 82,19 83,9 85,23
88,9999 89,3896 90,662 91,290
92,177 93,1274 94,94 95,233
96,9 97,3266 98,51 99,168
105,44 106,11 107,24 108,59
109,443 110,25 111,39 112,215
113,156 114,321 115,33 116,26
119,13 121,347 122,33 123,76
124,13 125,1505 126,69 127,89
128,13 129,829 130,189 131,259
132,23 133,11 135,6 137,16
139,50 140,37 142,1563 143,95
144,170 145,9 151,13 153,1370
154,97 155,120 156,9 157,377
158,425 159,225 160,54 161,181
163,23 167,6 168,23 169,6
170,7 171,29 173,25 183,7
185,191 186,1076 187,322 188,152
189,280 190,21 191,35 199,6
201,8 212,89 213,88 214,15
215,7 217,55 219,8 229,51
230,7 231,8 245,138 246,14
247,23 274,792 275,87 276,118
277,12 278,6
##GROUP=Other
##END=
