##TITLE=Phorate
##JCAMP-DX=4.24
##DATA TYPE=MASS SPECTRUM
##ORIGIN=ACCUSTANDARD Chemicals / NIST MS Data Center.
##OWNER=NIST Mass Spectrometry Data Center
Collection (C) 2014 copyright by the U.S. Secretary of Commerce
on behalf of the United States of America. All rights reserved.
##CAS REGISTRY NO=298-02-2
##$NIST MASS SPEC NO=125499
##MOLFORM=C7 H17 O2 P S3
##MW=260
##$NIST SOURCE=MSDC
##XUNITS=M/Z
##YUNITS=RELATIVE INTENSITY
##XFACTOR=1
##YFACTOR=1
##FIRSTX=12
##LASTX=264
##FIRSTY=9
##MAXX=264
##MINX=12
##MAXY=9999
##MINY=4
##NPOINTS=139
##PEAK TABLE=(XY..XY)
12,9 13,13 14,26 15,163
16,9 17,22 18,39 19,21
26,258 27,1922 28,687 29,3083
30,102 31,37 32,78 33,29
34,37 35,145 39,34 41,554
42,52 43,179 44,29 45,1364
46,706 47,2512 48,139 49,115
57,26 58,83 59,271 60,142
61,257 62,73 63,335 64,158
65,2036 66,28 67,10 71,7
72,11 75,9999 76,490 77,487
78,254 79,832 80,232 81,148
82,24 83,11 89,10 90,11
91,57 92,10 93,1611 94,62
95,172 96,10 97,2468 98,37
99,141 102,17 103,12 105,12
107,622 108,58 109,125 110,20
111,29 112,228 113,229 114,44
115,28 118,4 121,3039 122,134
123,60 124,4 125,818 126,41
127,96 128,4 129,830 130,34
131,168 133,10 135,6 136,10
137,12 138,9 139,23 140,34
141,112 142,68 143,64 144,62
145,11 153,449 154,225 155,164
156,105 157,197 158,39 159,73
161,9 168,8 169,12 170,8
171,41 172,85 173,6 175,160
176,7 177,24 185,107 186,118
187,119 188,21 189,13 199,46
200,55 201,9 203,120 204,8
205,17 213,14 214,14 215,42
217,6 231,884 232,90 233,138
234,12 235,7 260,1474 261,146
262,212 263,26 264,13##GROUP=Oil Additives
##END=
