##TITLE=9-Octadecenamide, (Z)-
##JCAMP-DX=4.24
##DATA TYPE=MASS SPECTRUM
##ORIGIN=Japan AIST/NIMC Database- Spectrum MS-NW- 733
##OWNER=NIST Mass Spectrometry Data Center
Collection (C) 2014 copyright by the U.S. Secretary of Commerce
on behalf of the United States of America. All rights reserved.
##CAS REGISTRY NO=301-02-0
##$NIST MASS SPEC NO=229466
##MOLFORM=C18 H35 N O
##MW=281
##$NIST SOURCE=MSDC
##XUNITS=M/Z
##YUNITS=RELATIVE INTENSITY
##XFACTOR=1
##YFACTOR=1
##FIRSTX=17
##LASTX=283
##FIRSTY=20
##MAXX=283
##MINX=17
##MAXY=9999
##MINY=10
##NPOINTS=180
##PEAK TABLE=(XY..XY)
17,20 18,149 27,319 28,189
29,749 30,50 32,40 39,319
40,60 41,2139 42,339 43,1879
44,939 45,40 46,10 51,20
52,20 53,209 54,489 55,2269
56,499 57,939 58,60 59,9999
60,1049 61,40 65,60 66,40
67,729 68,279 69,1309 70,319
71,299 72,5029 73,669 74,40
77,60 78,20 79,179 80,109
81,589 82,299 83,779 84,329
85,149 86,659 87,99 91,60
92,10 93,99 94,99 95,429
96,319 97,549 98,579 99,129
100,389 101,149 102,10 105,40
106,10 107,80 108,90 109,239
110,239 111,239 112,489 113,159
114,599 115,169 116,10 119,40
120,20 121,80 122,279 123,229
124,169 125,109 126,549 127,119
128,519 129,70 133,40 134,40
135,60 136,239 137,169 138,129
139,70 140,229 141,60 142,169
143,30 147,50 148,30 149,40
150,109 151,109 152,109 153,40
154,209 155,50 156,129 157,30
161,30 162,10 163,20 164,80
165,60 166,90 167,30 168,90
169,30 170,129 171,30 175,20
177,10 178,70 179,50 180,80
181,30 182,70 183,30 184,179
185,40 191,10 192,60 193,40
194,50 195,20 196,50 197,10
198,119 199,40 206,60 207,40
208,40 209,20 210,60 211,10
212,90 213,20 220,109 221,60
222,90 223,20 224,50 225,50
226,70 227,99 228,10 234,50
235,40 236,60 237,10 238,109
239,30 240,40 241,30 246,10
248,10 249,10 250,10 252,50
253,139 254,40 255,90 256,20
262,30 263,109 264,269 265,60
266,10 267,30 269,20 279,40
280,20 281,849 282,179 283,60##GROUP=Hydrocarbons
##END=
