##TITLE=n-Decanoic acid
##JCAMP-DX=4.24
##DATA TYPE=MASS SPECTRUM
##ORIGIN=Japan AIST/NIMC Database- Spectrum MS-NW-1820
##OWNER=NIST Mass Spectrometry Data Center
Collection (C) 2014 copyright by the U.S. Secretary of Commerce
on behalf of the United States of America. All rights reserved.
##CAS REGISTRY NO=334-48-5
##$NIST MASS SPEC NO=228813
##MOLFORM=C10 H20 O2
##MW=172
##$NIST SOURCE=MSDC
##XUNITS=M/Z
##YUNITS=RELATIVE INTENSITY
##XFACTOR=1
##YFACTOR=1
##FIRSTX=15
##LASTX=174
##FIRSTY=60
##MAXX=174
##MINX=15
##MAXY=9999
##MINY=10
##NPOINTS=97
##PEAK TABLE=(XY..XY)
15,60 17,20 18,70 26,60
27,1809 28,359 29,2529 30,80
31,159 32,20 38,30 39,1319
40,249 41,4849 42,1069 43,4359
44,159 45,679 46,20 47,30
50,20 51,80 52,40 53,369
54,319 55,3579 56,939 57,4209
58,199 59,379 60,9999 61,1439
62,70 63,20 65,50 66,30
67,299 68,299 69,1899 70,799
71,3369 72,189 73,8919 74,819
75,60 77,40 78,20 79,90
80,30 81,219 82,229 83,1099
84,669 85,109 86,70 87,1359
88,109 89,20 91,20 93,50
94,30 95,70 96,30 97,439
98,439 99,50 100,20 101,539
102,80 103,10 107,30 108,10
109,10 110,469 111,159 112,849
113,369 114,30 115,969 116,90
117,10 121,20 125,50 126,10
129,3349 130,289 131,30 135,20
136,60 143,549 144,70 153,20
155,70 157,10 172,709 173,99
174,20##GROUP=Hydrocarbons
##END=
