##TITLE=Cyclopentasiloxane, decamethyl-
##JCAMP-DX=4.24
##DATA TYPE=MASS SPECTRUM
##ORIGIN=NIST Mass Spectrometry Data Center, 1994
##OWNER=NIST Mass Spectrometry Data Center
Collection (C) 2014 copyright by the U.S. Secretary of Commerce
on behalf of the United States of America. All rights reserved.
##CAS REGISTRY NO=541-02-6
##$NIST MASS SPEC NO=133340
##MOLFORM=C10 H30 O5 Si5
##MW=370
##$NIST SOURCE=MSDC
##XUNITS=M/Z
##YUNITS=RELATIVE INTENSITY
##XFACTOR=1
##YFACTOR=1
##FIRSTX=14
##LASTX=360
##FIRSTY=16
##MAXX=360
##MINX=14
##MAXY=9999
##MINY=6
##NPOINTS=127
##PEAK TABLE=(XY..XY)
14,16 15,25 28,101 29,12
32,34 43,26 45,337 46,24
47,22 57,11 59,285 60,22
61,21 70,6 71,21 73,6466
74,546 75,293 76,14 83,8
85,37 87,60 96,11 99,12
103,26 104,10 105,11 108,43
111,16 112,11 115,13 117,14
118,26 119,41 125,41 126,22
131,8 132,11 133,65 134,10
135,18 139,10 140,7 147,37
148,17 149,8 154,136 155,51
162,93 163,45 164,12 165,33
166,12 170,46 175,8 176,15
177,67 178,20 179,125 180,32
181,13 189,24 191,186 192,55
193,215 194,51 195,36 203,41
204,10 205,100 206,19 207,113
208,29 209,16 219,11 221,15
223,134 224,40 225,23 235,47
236,19 237,112 238,21 239,19
249,282 250,90 251,460 252,134
253,152 254,32 255,23 263,63
264,15 265,90 266,15 267,6501
268,1687 269,1030 270,215 271,65
279,9 281,58 282,14 283,10
293,40 294,19 295,16 308,7
309,55 310,17 311,11 323,320
324,113 325,175 326,50 327,27
339,459 340,156 341,117 342,29
343,11 355,9999 356,3583 357,2419
358,561 359,200 360,42
##END=
