##TITLE=Folic Acid
##JCAMP-DX=4.24
##DATA TYPE=MASS SPECTRUM
##ORIGIN=Japan AIST/NIMC Database- Spectrum MS-NW- 304
##OWNER=NIST Mass Spectrometry Data Center
Collection (C) 2014 copyright by the U.S. Secretary of Commerce
on behalf of the United States of America. All rights reserved.
##CAS REGISTRY NO=59-30-3
##$NIST MASS SPEC NO=228207
##MOLFORM=C19 H19 N7 O6
##MW=441
##$NIST SOURCE=MSDC
##XUNITS=M/Z
##YUNITS=RELATIVE INTENSITY
##XFACTOR=1
##YFACTOR=1
##FIRSTX=12
##LASTX=371
##FIRSTY=129
##MAXX=371
##MINX=12
##MAXY=9999
##MINY=50
##NPOINTS=308
##PEAK TABLE=(XY..XY)
12,129 13,70 14,129 15,299
16,539 17,527 18,2215 19,60
25,90 26,949 27,2339 28,5459
29,1179 30,379 31,939 32,619
33,139 34,289 35,209 36,1829
37,449 38,789 39,2689 40,989
41,4709 42,1889 43,2699 44,9999
45,569 46,319 47,139 48,70
49,119 50,549 51,899 52,959
53,1069 54,1569 55,2549 56,1809
57,1989 58,189 59,269 60,829
61,479 62,529 63,1049 64,839
65,2639 66,2659 67,1189 68,759
69,1359 70,949 71,1059 72,279
73,739 74,369 75,299 76,439
77,799 78,599 79,639 80,869
81,889 82,799 83,1429 84,9949
85,809 86,239 87,249 88,289
89,319 90,489 91,1569 92,2549
93,6849 94,839 95,849 96,529
97,829 98,909 99,339 100,329
101,359 102,249 103,369 104,309
105,619 106,639 107,1209 108,699
109,639 110,379 111,489 112,349
113,289 114,259 115,359 116,249
117,439 118,1249 119,1239 120,3759
121,659 122,589 123,389 124,249
125,309 126,379 127,1259 128,2599
129,569 130,349 131,329 132,289
133,419 134,529 135,509 136,749
137,3059 138,379 139,309 140,169
141,289 142,189 143,229 144,269
145,269 146,299 147,279 148,209
149,369 150,869 151,389 152,309
153,199 154,199 155,139 156,129
157,179 158,279 159,379 160,179
161,259 162,239 163,349 164,189
165,279 166,229 167,499 168,429
169,569 170,169 171,179 172,159
173,129 174,169 175,269 176,339
177,4439 178,1229 179,369 180,289
181,189 182,229 183,169 184,239
185,209 186,289 187,169 188,139
189,219 190,229 191,239 192,259
193,209 194,359 195,249 196,189
197,169 198,169 199,149 200,259
201,219 202,809 203,499 204,379
205,229 206,289 207,299 208,219
209,169 210,179 211,299 212,199
213,179 214,119 215,179 216,179
217,209 218,209 219,179 220,179
221,209 222,159 223,149 224,149
225,139 226,109 227,90 228,169
229,139 230,109 231,139 232,109
233,99 234,139 235,109 236,169
237,99 238,139 239,109 240,109
241,129 242,119 243,129 244,70
245,659 246,169 247,109 248,129
249,80 250,109 251,99 252,99
253,129 254,80 255,80 256,149
257,90 258,60 259,70 260,90
261,60 262,139 263,969 264,139
265,80 266,109 267,99 268,70
269,70 270,80 271,60 272,60
273,90 274,70 275,50 276,80
277,70 278,169 279,109 280,90
281,109 282,90 283,90 284,90
285,70 286,50 287,80 289,50
290,90 292,60 293,80 294,99
295,119 296,60 297,90 299,60
301,50 302,70 303,50 305,70
306,80 308,80 310,90 311,50
313,60 314,70 316,60 320,80
327,50 328,80 331,70 332,60
333,50 347,50 351,50 353,90
354,119 355,109 356,50 362,50
364,149 368,99 369,50 371,70

##GROUP=Biological##END=
