##TITLE=Methyl trityl ether
##JCAMP-DX=4.24
##DATA TYPE=MASS SPECTRUM
##ORIGIN=NIST Mass Spectrometry Data Center, 1994
##OWNER=NIST Mass Spectrometry Data Center
Collection (C) 2014 copyright by the U.S. Secretary of Commerce
on behalf of the United States of America. All rights reserved.
##CAS REGISTRY NO=596-31-6
##$NIST MASS SPEC NO=135567
##MOLFORM=C20 H18 O
##MW=274
##$NIST SOURCE=MSDC
##XUNITS=M/Z
##YUNITS=RELATIVE INTENSITY
##XFACTOR=1
##YFACTOR=1
##FIRSTX=15
##LASTX=276
##FIRSTY=380
##MAXX=276
##MINX=15
##MAXY=9999
##MINY=23
##NPOINTS=118
##PEAK TABLE=(XY..XY)
15,380 17,60 18,85 26,35
27,551 29,178 30,65 38,97
39,811 41,57 50,668 51,2907
52,304 53,72 61,23 62,165
63,576 64,95 65,280 69,31
74,191 75,320 77,9021 78,1010
79,57 82,84 86,102 87,216
88,202 89,315 90,79 91,962
92,100 93,137 94,57 95,308
98,72 99,73 100,130 101,272
102,140 103,39 104,39 105,9999
106,975 107,300 111,43 113,454
114,200 115,605 116,62 119,573
121,360 126,200 127,140 128,88
129,25 137,329 138,92 139,437
140,71 141,53 149,32 150,148
151,297 152,678 153,359 154,144
161,41 163,522 165,5785 166,986
167,184 168,32 174,39 175,38
176,134 177,49 178,44 181,354
182,66 186,31 187,155 188,120
189,243 190,49 195,76 197,9864
198,1521 199,159 200,162 201,118
202,321 203,93 211,57 212,42
213,229 214,42 215,538 216,120
224,36 225,63 226,318 227,198
228,521 229,126 237,177 239,884
240,323 241,731 242,63 243,5093
244,1154 245,136 259,70 274,4123
275,840 276,96##GROUP=Hydrocarbons
##END=
