##TITLE=Dimethoate
##JCAMP-DX=4.24
##DATA TYPE=MASS SPECTRUM
##ORIGIN=NIST Mass Spectrometry Data Center, 1990.
##OWNER=NIST Mass Spectrometry Data Center
Collection (C) 2014 copyright by the U.S. Secretary of Commerce
on behalf of the United States of America. All rights reserved.
##CAS REGISTRY NO=60-51-5
##$NIST MASS SPEC NO=118968
##MOLFORM=C5 H12 N O3 P S2
##MW=229
##$NIST SOURCE=MSDC
##XUNITS=M/Z
##YUNITS=RELATIVE INTENSITY
##XFACTOR=1
##YFACTOR=1
##FIRSTX=15
##LASTX=231
##FIRSTY=889
##MAXX=231
##MINX=15
##MAXY=9999
##MINY=4
##NPOINTS=113
##PEAK TABLE=(XY..XY)
15,889 17,4 18,109 26,22
28,856 29,357 30,571 31,310
32,157 33,36 35,16 39,11
40,24 41,93 42,868 43,302
44,550 45,794 46,556 47,1678
48,182 49,87 50,31 51,21
52,12 54,80 55,222 56,665
57,12 58,1593 59,63 60,95
61,88 62,485 63,1568 64,314
65,95 66,24 71,47 72,213
73,329 74,43 76,225 77,142
78,137 79,1404 80,116 81,28
82,13 87,9999 88,760 89,493
90,42 93,5351 94,312 95,320
96,193 97,20 98,27 101,18
102,11 104,489 105,176 106,48
107,11 108,78 109,255 110,136
111,214 112,29 119,67 120,101
121,10 122,22 125,4542 126,660
127,344 128,54 134,36 140,50
141,58 142,176 143,894 144,52
145,49 154,13 155,62 156,173
157,348 158,185 159,193 160,21
161,18 166,130 167,25 168,14
170,131 171,194 172,136 173,28
174,99 176,13 181,16 182,56
184,12 196,16 197,38 198,113
199,57 200,17 229,762 230,66
231,81
##GROUP=Other
##END=
