##TITLE=Tridecanoic acid
##JCAMP-DX=4.24
##DATA TYPE=MASS SPECTRUM
##ORIGIN=NIST Mass Spectrometry Data Center
##OWNER=NIST Mass Spectrometry Data Center
Collection (C) 2014 copyright by the U.S. Secretary of Commerce
on behalf of the United States of America. All rights reserved.
##CAS REGISTRY NO=638-53-9
##$NIST MASS SPEC NO=352605
##MOLFORM=C13 H26 O2
##MW=214
##$NIST SOURCE=MSDC
##XUNITS=M/Z
##YUNITS=RELATIVE INTENSITY
##XFACTOR=1
##YFACTOR=1
##FIRSTX=15
##LASTX=216
##FIRSTY=20
##MAXX=216
##MINX=15
##MAXY=9999
##MINY=10
##NPOINTS=139
##PEAK TABLE=(XY..XY)
15,20 19,10 26,60 27,1311
28,340 29,2652 30,80 31,150
37,10 38,20 39,1441 40,290
41,7727 42,1772 43,8217 44,310
45,1371 46,40 47,30 50,30
51,80 52,50 53,631 54,561
55,7076 56,1611 57,6326 58,320
59,520 60,9659 61,1922 62,80
63,20 64,10 65,100 66,70
67,611 68,450 69,3083 70,891
71,2742 73,9999 74,901 75,80
76,10 77,80 78,30 79,210
80,70 81,390 82,440 83,1922
84,1041 85,2362 86,250 87,1842
88,180 89,30 90,10 91,40
92,10 93,130 94,60 95,240
96,370 97,1421 98,941 99,921
100,110 101,771 102,310 103,30
104,10 105,20 106,10 107,80
108,30 109,100 110,210 111,641
112,310 113,350 114,60 115,2242
116,370 117,40 118,10 119,10
120,10 121,90 122,20 123,60
124,170 125,310 126,200 127,30
129,4544 130,400 131,30 135,50
136,10 137,10 138,20 139,50
140,20 141,10 143,661 144,80
145,10 149,30 150,10 152,300
153,60 154,190 155,60 157,671
158,100 159,10 163,10 167,10
168,10 169,10 171,2582 172,270
173,30 177,20 178,40 179,10
185,931 186,130 187,10 195,10
197,60 198,10 199,10 213,10
214,1021 215,150 216,10##GROUP=Hydrocarbons
##END=
