##TITLE=Glycerol, 3TMS derivative
##JCAMP-DX=4.24
##DATA TYPE=MASS SPECTRUM
##ORIGIN=Tox21 Consortium/NIST Mass Spectrometry Data Center, 2012
##OWNER=NIST Mass Spectrometry Data Center
Collection (C) 2014 copyright by the U.S. Secretary of Commerce
on behalf of the United States of America. All rights reserved.
##CAS REGISTRY NO=6787-10-6
##$NIST MASS SPEC NO=408165
##MOLFORM=C12 H32 O3 Si3
##MW=308
##$NIST SOURCE=MSDC
##XUNITS=M/Z
##YUNITS=RELATIVE INTENSITY
##XFACTOR=1
##YFACTOR=1
##FIRSTX=15
##LASTX=295
##FIRSTY=10
##MAXX=295
##MINX=15
##MAXY=9999
##MINY=10
##NPOINTS=119
##PEAK TABLE=(XY..XY)
15,10 27,20 28,20 29,50
30,10 31,20 39,40 41,250
42,20 43,200 44,180 45,961
46,70 47,130 49,10 52,20
53,10 54,10 55,110 56,40
57,80 58,180 59,751 60,80
61,110 62,10 66,50 67,10
69,10 70,30 71,50 72,230
73,9999 74,851 75,841 76,40
77,30 83,10 85,60 86,10
87,60 88,70 89,250 90,30
91,20 95,10 99,40 100,10
101,530 102,70 103,3073 104,280
105,170 106,10 107,10 111,10
113,60 114,10 115,160 116,280
117,3223 118,320 119,290 120,30
121,20 128,10 129,711 130,90
131,540 132,80 133,1992 134,290
135,180 136,20 143,10 145,30
147,7337 148,1161 149,751 150,80
151,30 159,40 160,10 161,30
162,10 163,90 164,10 165,10
173,10 174,20 175,370 176,60
177,310 178,50 179,20 187,10
189,60 190,10 191,340 192,60
193,30 203,260 204,530 205,3763
206,741 207,350 208,40 209,10
217,180 218,1131 219,240 220,110
221,50 222,10 263,20 264,10
293,100 294,30 295,10##GROUP=Biological##END=
