##TITLE=Riboflavin, 2',3',4',5'-tetrabutanoate
##JCAMP-DX=4.24
##DATA TYPE=MASS SPECTRUM
##ORIGIN=Japan AIST/NIMC Database- Spectrum MS-NW-9036
##OWNER=NIST Mass Spectrometry Data Center
Collection (C) 2014 copyright by the U.S. Secretary of Commerce
on behalf of the United States of America. All rights reserved.
##CAS REGISTRY NO=752-56-7
##$NIST MASS SPEC NO=233142
##MOLFORM=C33 H44 N4 O10
##MW=656
##$NIST SOURCE=MSDC
##XUNITS=M/Z
##YUNITS=RELATIVE INTENSITY
##XFACTOR=1
##YFACTOR=1
##FIRSTX=14
##LASTX=657
##FIRSTY=70
##MAXX=657
##MINX=14
##MAXY=9999
##MINY=10
##NPOINTS=418
##PEAK TABLE=(XY..XY)
14,70 15,179 16,30 17,10
18,40 25,30 26,319 27,1929
28,899 29,879 30,50 31,90
32,40 34,10 36,30 37,139
38,249 39,1409 40,289 41,2629
42,1769 43,5079 44,939 45,1119
46,50 47,50 49,20 50,129
51,279 52,189 53,299 54,189
55,1779 56,229 57,449 58,70
59,60 60,9999 61,299 62,99
63,179 64,129 65,369 66,199
67,279 68,199 69,689 70,819
71,7649 72,379 73,3559 74,169
75,129 76,149 77,529 78,239
79,269 80,159 81,779 82,369
83,399 84,239 85,229 86,289
87,299 88,279 89,329 90,169
91,409 92,119 93,129 94,99
95,229 96,179 97,409 98,509
99,199 100,139 101,199 102,309
103,509 104,269 105,269 106,80
107,129 108,80 109,169 110,139
111,189 112,90 113,99 114,169
115,229 116,489 117,279 118,189
119,109 120,50 121,129 122,70
123,109 124,90 125,109 126,129
127,129 128,239 129,389 130,489
131,309 132,70 133,70 134,40
135,70 136,40 137,70 138,60
139,80 140,149 141,229 142,159
143,419 144,289 145,189 146,70
147,70 148,40 149,50 150,50
151,70 152,90 153,149 154,119
155,249 156,2529 157,709 158,249
159,109 160,40 161,30 162,30
163,40 164,30 165,50 166,60
167,109 168,349 169,499 170,1309
171,3209 172,729 173,139 174,30
175,30 176,20 177,30 178,30
179,60 180,90 181,189 182,239
183,209 184,209 185,169 186,179
187,60 188,20 189,20 190,20
191,30 192,60 193,129 194,169
195,189 196,769 197,519 198,739
199,889 200,249 201,139 202,30
203,20 204,20 205,50 206,90
207,169 208,269 209,789 210,1289
211,319 212,109 213,339 214,219
215,50 216,30 217,30 218,50
219,60 220,179 221,179 222,259
223,279 224,689 225,209 226,139
227,159 228,80 229,70 230,30
231,30 232,50 233,70 234,339
235,889 236,809 237,439 238,389
239,129 240,99 241,209 242,6269
243,5109 244,769 245,99 246,40
247,40 248,70 249,70 250,179
251,229 252,199 253,109 254,99
255,90 256,639 257,229 258,50
259,30 260,50 261,70 262,90
263,109 264,129 265,80 266,249
267,629 268,249 269,169 270,70
271,30 272,30 273,20 274,20
275,30 276,40 277,80 278,129
279,169 280,289 281,1729 282,359
283,90 284,50 285,129 286,50
287,20 288,20 289,20 290,20
291,30 292,40 293,99 294,90
295,219 296,109 297,109 298,60
299,30 300,20 301,20 302,20
303,20 304,70 305,99 306,359
307,669 308,989 309,239 310,70
311,80 312,50 313,60 314,30
315,60 316,20 317,20 318,20
319,20 320,30 321,129 322,189
323,429 324,479 325,129 326,50
327,50 328,20 329,20 330,10
331,10 332,10 333,10 334,10
335,10 336,20 337,30 338,20
339,99 340,99 341,289 342,70
343,50 344,20 345,90 346,30
347,30 348,20 349,20 350,20
351,10 352,10 353,20 354,20
355,30 356,20 357,70 358,30
359,80 360,20 361,10 364,10
365,20 366,30 367,40 368,60
369,30 370,10 374,10 375,139
376,50 377,50 378,10 379,20
380,10 381,30 382,30 383,30
384,20 385,30 386,20 387,10
392,30 393,80 394,159 395,119
396,90 397,40 398,20 399,20
408,10 409,70 410,129 411,729
412,219 413,60 414,20 415,40
416,20 427,60 428,60 429,129
430,40 431,20 438,10 445,199
446,90 447,30 448,10 453,10
454,10 455,10 469,20 470,10
480,30 481,189 482,929 483,289
484,60 485,40 486,20 496,10
497,99 498,189 499,209 500,70
501,20 515,179 516,139 517,50
518,20 569,269 570,159 571,50
572,10 585,129 586,179 587,50
656,20 657,20
##GROUP=Biological##END=
