##TITLE=Riboflavin, 2',3',4',5'-tetraacetate
##JCAMP-DX=4.24
##DATA TYPE=MASS SPECTRUM
##ORIGIN=C.C.SWEELEY,DEPT OF BIOCHEM,MICHIGAN STATE UNIV.EAST LANSING,
##OWNER=NIST Mass Spectrometry Data Center
Collection (C) 2014 copyright by the U.S. Secretary of Commerce
on behalf of the United States of America. All rights reserved.
##CAS REGISTRY NO=752-13-6
##$NIST MASS SPEC NO=25773
##MOLFORM=C25 H28 N4 O10
##MW=544
##$NIST SOURCE=MSDC
##XUNITS=M/Z
##YUNITS=RELATIVE INTENSITY
##XFACTOR=1
##YFACTOR=1
##FIRSTX=40
##LASTX=504
##FIRSTY=80
##MAXX=504
##MINX=40
##MAXY=9999
##MINY=31
##NPOINTS=161
##PEAK TABLE=(XY..XY)
40,80 41,315 42,534 43,9999
44,757 45,1138 50,83 51,90
52,90 53,148 54,56 55,227
56,90 57,144 60,578 61,78
62,36 63,87 64,75 66,46
67,58 68,36 69,156 70,87
71,75 73,190 74,87 75,78
77,319 78,97 79,131 81,420
83,75 85,285 86,95 88,41
89,90 90,75 91,180 92,51
93,31 97,114 98,305 99,288
100,48 101,80 102,153 103,593
104,170 105,136 112,31 113,31
115,437 116,385 117,134 118,112
127,151 128,100 129,136 130,263
131,92 140,124 141,510 142,134
143,87 144,139 145,195 146,46
156,740 157,808 158,542 159,222
168,65 169,139 170,625 171,1814
172,539 173,112 183,80 184,434
185,280 186,129 195,31 196,249
197,329 198,718 199,451 200,207
201,127 209,168 210,244 212,129
213,615 214,417 224,92 225,83
228,90 236,53 238,70 241,73
242,9171 243,7454 244,1038 245,46
255,31 256,1560 257,356 264,41
267,168 268,102 270,75 281,195
283,51 285,393 286,31 297,78
308,188 311,46 315,109 323,78
324,51 327,92 339,109 341,222
343,43 345,129 357,39 358,43
367,87 369,92 370,36 375,119
378,34 381,34 383,1402 384,200
385,51 387,100 401,168 417,302
418,70 425,332 426,180 427,75
429,207 430,75 441,246 442,246
443,412 444,131 459,578 460,56
461,58 484,51 485,3060 486,1096
487,239 501,1480 502,564 503,112
504,36

##GROUP=Biological##END=
