##TITLE=Carbophenothion
##JCAMP-DX=4.24
##DATA TYPE=MASS SPECTRUM
##ORIGIN=NIST Mass Spectrometry Data Center, 1995
##OWNER=NIST Mass Spectrometry Data Center
Collection (C) 2014 copyright by the U.S. Secretary of Commerce
on behalf of the United States of America. All rights reserved.
##CAS REGISTRY NO=786-19-6
##$NIST MASS SPEC NO=245230
##MOLFORM=C11 H16 Cl O2 P S3
##MW=342
##$NIST SOURCE=MSDC
##XUNITS=M/Z
##YUNITS=RELATIVE INTENSITY
##XFACTOR=1
##YFACTOR=1
##FIRSTX=14
##LASTX=347
##FIRSTY=72
##MAXX=347
##MINX=14
##MAXY=9999
##MINY=13
##NPOINTS=130
##PEAK TABLE=(XY..XY)
14,72 15,173 16,45 19,48
26,199 27,1407 28,304 29,2592
30,80 31,43 32,13 36,40
37,60 38,77 39,148 43,245
45,5433 46,563 47,980 48,180
49,81 50,496 51,321 52,35
57,67 58,143 59,87 60,116
61,180 62,145 63,832 64,35
65,2962 66,52 69,436 70,53
71,53 73,268 74,259 75,993
76,267 77,626 78,322 79,257
80,230 81,242 82,288 83,76
84,61 85,138 87,67 89,104
91,73 93,2005 94,109 95,167
96,61 97,5769 98,61 99,706
100,126 101,183 102,49 105,43
108,1829 109,510 110,193 111,392
112,312 113,348 114,87 115,41
118,35 121,4719 122,630 123,139
124,35 125,4011 126,169 127,389
128,35 129,1149 131,147 135,40
139,66 140,132 141,175 142,40
143,1848 144,600 145,708 146,232
147,56 151,34 153,4111 154,620
155,678 156,34 157,9999 158,976
159,3719 160,354 161,152 171,1036
172,67 173,146 174,67 175,302
177,134 185,93 187,104 188,58
189,533 190,98 191,250 199,3392
200,240 201,362 208,33 296,1097
297,221 298,446 299,95 300,73
342,7523 343,1230 344,3780 345,567
346,456 347,77
##GROUP=Oil Additives
##END=
