##TITLE=Niacinamide
##JCAMP-DX=4.24
##DATA TYPE=MASS SPECTRUM
##ORIGIN=NIST Mass Spectrometry Data Center, 1998.
##OWNER=NIST Mass Spectrometry Data Center
Collection (C) 2014 copyright by the U.S. Secretary of Commerce
on behalf of the United States of America. All rights reserved.
##CAS REGISTRY NO=98-92-0
##$NIST MASS SPEC NO=290943
##MOLFORM=C6 H6 N2 O
##MW=122
##$NIST SOURCE=MSDC
##XUNITS=M/Z
##YUNITS=RELATIVE INTENSITY
##XFACTOR=1
##YFACTOR=1
##FIRSTX=16
##LASTX=124
##FIRSTY=40
##MAXX=124
##MINX=16
##MAXY=9999
##MINY=10
##NPOINTS=52
##PEAK TABLE=(XY..XY)
16,40 17,20 25,30 26,190
27,160 28,210 29,30 36,30
37,200 38,320 39,410 40,100
41,100 42,20 43,80 44,1500
45,40 48,60 49,500 50,2680
51,4960 52,1990 53,580 54,40
61,30 62,40 63,50 64,50
65,50 66,90 67,70 68,10
70,10 74,40 75,320 76,450
77,800 78,7609 79,820 80,40
93,60 94,440 95,30 103,10
104,140 105,720 106,6339 107,450
108,30 122,9999 123,770 124,40
##GROUP=Biological##END=
