##TITLE=Ambroxol
##ORIGIN=Nihon Waters K.K.
##MW=375.97859
##MOLFORM=C13H18Br2N2O
##GROUP=N/A
##NPOINTS=17
##JCAMP-DX=4.24
##DATA TYPE=MASS SPECTRUM
##XUNITS=M/Z
##YUNITS=RELATIVE INTENSITY
##XFACTOR=1
##YFACTOR=1
##FIRSTX=103
##LASTX=267
##FIRSTY=16
##MINX=103
##MAXX=267
##MINY=12
##MAXY=999
##PEAK TABLE=(XY..XY)103,16 104,404 105,39 116,20 156,35 158,35 182,43 183,498 184,86 185,490 186,35 237,12 262,490 264,999 265,24 266,498 267,27
##END=