##TITLE=Betamethasone 21
##ORIGIN=Beck B, Stravs M, Schymanski E, Singer H, Department of Environmental Chemistry, Eawag
##MW=434.21047
##MOLFORM=C24H31FO6
##GROUP=N/A; Environmental Standard
##NPOINTS=194
##JCAMP-DX=4.24
##DATA TYPE=MASS SPECTRUM
##XUNITS=M/Z
##YUNITS=RELATIVE INTENSITY
##XFACTOR=1
##YFACTOR=1
##FIRSTX=53
##LASTX=285
##FIRSTY=10
##MINX=53
##MAXX=285
##MINY=5
##MAXY=999
##PEAK TABLE=(XY..XY)53,10 55,7 55,10 57,12 59,9 61,79 65,58 67,205 69,48 69,47 71,12 75,5 77,22 78,7 79,317 81,10 81,128 83,10 91,999 93,271 95,253 95,161 97,13 101,10 103,88 104,25 105,37 105,594 107,111 107,234 108,11 109,7 109,89 109,78 111,10 115,316 116,80 117,210 119,565 121,709 121,67 123,64 125,7 127,7 128,482 129,241 130,66 131,49 131,236 132,213 133,65 133,79 135,161 137,8 137,8 141,252 142,136 143,299 144,181 144,12 145,347 145,65 146,68 147,681 149,31 151,12 152,66 153,110 154,56 155,13 155,40 155,159 156,24 156,34 157,54 157,59 158,265 159,358 160,23 161,6 161,76 165,200 166,69 167,102 168,25 168,14 169,107 169,44 170,74 171,385 172,48 173,98 177,10 178,235 179,317 180,77 181,150 181,74 182,137 183,116 183,9 184,39 185,111 187,10 189,104 190,89 191,121 192,123 193,8 193,152 194,68 194,72 195,200 195,34 196,140 197,143 198,33 202,89 203,124 204,99 205,49 205,107 206,47 206,64 207,179 207,51 208,189 209,227 210,79 211,6 211,57 212,10 215,116 216,65 217,72 218,41 218,36 219,126 219,67 220,69 220,26 221,235 221,12 222,218 223,78 224,11 225,9 225,13 227,12 228,58 229,113 230,54 231,84 231,39 232,95 232,9 233,169 233,13 234,90 235,130 235,10 236,14 237,52 241,24 242,33 243,89 244,12 244,14 245,108 246,110 247,171 248,113 249,48 250,8 251,9 252,8 256,14 256,6 257,11 257,11 258,13 259,49 260,17 261,107 262,53 263,56 270,10 271,67 272,11 273,9 274,7 275,7 275,6 285,43
##END=