##TITLE=Carnosine
##ORIGIN=Takahashi H, Kanaya S, Ogasawara N, Graduate School of Information Science, NAIST
##MW=226.10659
##MOLFORM=C9H14N4O3
##GROUP=Natural Product
##NPOINTS=188
##JCAMP-DX=4.24
##DATA TYPE=MASS SPECTRUM
##XUNITS=M/Z
##YUNITS=RELATIVE INTENSITY
##XFACTOR=1
##YFACTOR=1
##FIRSTX=100
##LASTX=1343
##FIRSTY=1
##MINX=100
##MAXX=1343
##MINY=1
##MAXY=999
##PEAK TABLE=(XY..XY)100,1 102,1 105,1 105,1 110,1 110,49 110,1 111,1 113,1 113,1 113,2 114,1 114,1 114,6 114,1 114,1 114,1 114,1 114,1 114,1 114,2 114,3 114,2 114,5 114,2 114,10 114,999 114,11 114,5 114,3 114,3 114,1 114,2 114,1 114,1 114,1 114,1 114,1 114,1 114,1 114,1 114,6 114,1 114,2 114,1 114,1 114,1 114,2 114,91 114,1 114,1 115,1 115,1 129,1 129,1 130,48 130,1 130,1 131,1 137,1 138,1 141,2 147,1 147,3 147,1 147,1 147,2 147,1 147,1 147,3 147,1 147,6 147,581 147,6 147,3 147,1 147,2 147,1 147,1 147,1 147,1 147,1 147,3 147,1 147,1 147,1 147,1 148,1 148,34 149,2 149,1 149,1 152,34 153,1 155,1 156,1 156,1 156,2 156,147 156,1 156,1 156,1 157,1 157,6 158,4 158,1 161,1 163,1 163,1 169,4 171,1 171,15 173,1 174,7 179,1 180,1 180,79 180,1 181,3 181,1 182,7 182,4 185,4 187,2 193,3 198,1 198,130 198,1 198,1 199,6 199,1 209,1 210,1 210,8 217,1 223,1 223,1 226,1 226,1 226,1 227,3 227,1 227,1 227,1 227,2 227,1 227,1 227,3 227,1 227,6 227,726 227,6 227,3 227,1 227,2 227,1 227,1 227,1 227,1 227,3 227,1 227,1 228,5 228,63 229,2 249,13 250,1 255,1 271,1 293,3 299,2 301,4 301,1 373,7 373,1 374,1 391,13 392,2 413,7 414,1 429,1 453,22 454,2 475,2 519,1 537,2 803,1 1343,1
##END=