##TITLE=Etidocaine
##ORIGIN=Nihon Waters K.K.
##MW=276.22016
##MOLFORM=C17H28N2O
##GROUP=N/A
##NPOINTS=5
##JCAMP-DX=4.24
##DATA TYPE=MASS SPECTRUM
##XUNITS=M/Z
##YUNITS=RELATIVE INTENSITY
##XFACTOR=1
##YFACTOR=1
##FIRSTX=128
##LASTX=279
##FIRSTY=24
##MINX=128
##MAXX=279
##MINY=8
##MAXY=999
##PEAK TABLE=(XY..XY)128,24 163,8 277,999 278,172 279,16
##END=