##TITLE=Fludrocortisone
##ORIGIN=Beck B, Stravs M, Schymanski E, Singer H, Department of Environmental Chemistry, Eawag
##MW=422.21047
##MOLFORM=C23H31FO6
##GROUP=N/A; Environmental Standard
##NPOINTS=233
##JCAMP-DX=4.24
##DATA TYPE=MASS SPECTRUM
##XUNITS=M/Z
##YUNITS=RELATIVE INTENSITY
##XFACTOR=1
##YFACTOR=1
##FIRSTX=61
##LASTX=423
##FIRSTY=123
##MINX=61
##MAXX=423
##MINY=6
##MAXY=999
##PEAK TABLE=(XY..XY)61,123 67,45 69,52 69,34 71,29 79,67 81,13 81,106 83,149 85,11 91,86 93,192 95,67 95,108 97,327 99,59 101,209 101,131 103,14 103,9 105,267 107,35 107,138 109,88 109,14 111,14 111,37 115,31 115,7 117,70 119,25 119,270 121,519 121,44 123,27 123,278 125,42 125,7 128,27 129,70 131,242 133,88 133,155 135,274 135,14 137,28 137,15 137,91 139,53 141,37 142,34 143,476 145,60 145,271 146,6 147,314 147,28 149,7 149,104 151,34 153,11 153,35 155,191 156,10 157,32 157,330 158,7 159,245 159,134 161,451 162,14 163,82 163,31 163,326 165,27 165,13 165,39 166,13 167,71 168,8 169,254 170,8 171,132 171,130 173,251 173,26 175,9 175,12 175,141 177,27 179,43 180,13 181,809 182,40 183,57 183,294 185,219 185,132 187,16 187,128 189,317 189,45 191,8 191,37 193,114 194,14 195,301 196,31 197,107 197,444 198,14 199,184 199,91 201,60 201,82 203,11 203,83 205,16 205,68 205,11 206,86 207,32 207,177 208,35 209,53 209,184 210,9 211,225 211,133 213,224 213,15 215,7 215,24 215,50 217,13 217,26 218,9 219,7 219,96 220,9 221,28 221,331 222,18 223,158 223,217 224,52 225,156 225,107 226,8 227,13 227,95 229,60 229,26 231,8 232,41 233,56 234,7 235,28 235,71 237,160 237,125 238,8 239,999 241,105 241,206 242,9 243,79 245,67 245,8 246,33 247,228 248,8 249,71 249,57 250,14 251,7 251,121 251,12 252,24 253,83 255,83 255,63 256,7 256,16 257,190 258,66 259,9 259,46 261,9 261,16 261,85 263,60 264,32 265,412 266,102 267,60 267,198 269,94 269,8 270,9 271,13 274,12 277,31 279,45 279,161 281,45 282,10 283,207 284,220 285,35 285,9 285,71 289,102 292,12 294,14 295,89 297,60 299,119 299,12 303,9 307,205 310,28 313,48 315,11 325,292 327,9 341,14 343,207 345,7 361,10 367,14 385,9 423,65
##END=