##TITLE=Hydrocodone
##ORIGIN=Otto J, Stravs M, Schymanski E, Singer H, Department of Environmental Chemistry, Eawag
##MW=299.15214
##MOLFORM=C18H21NO3
##GROUP=N/A; Environmental Standard
##NPOINTS=149
##JCAMP-DX=4.24
##DATA TYPE=MASS SPECTRUM
##XUNITS=M/Z
##YUNITS=RELATIVE INTENSITY
##XFACTOR=1
##YFACTOR=1
##FIRSTX=55
##LASTX=256
##FIRSTY=2
##MINX=55
##MAXX=256
##MINY=1
##MAXY=999
##PEAK TABLE=(XY..XY)55,2 58,1 58,25 65,4 67,6 68,1 70,4 77,3 79,9 80,2 82,9 83,2 84,12 86,2 91,25 94,2 94,10 95,8 96,3 100,2 102,3 103,23 104,1 105,6 106,3 110,15 114,2 115,325 116,17 117,11 118,2 120,4 121,1 122,3 124,2 126,2 127,20 128,830 129,106 130,3 131,22 131,4 132,7 133,2 133,2 134,10 137,22 139,16 140,16 141,718 142,10 142,58 143,21 143,41 144,90 145,56 146,2 146,2 146,3 148,6 151,3 152,269 153,669 154,113 155,103 155,49 155,108 156,323 157,41 157,2 158,49 159,13 159,68 160,2 161,22 162,10 164,3 165,295 166,33 167,25 168,91 169,151 169,26 170,103 170,171 171,999 172,24 172,11 173,3 173,7 174,3 175,7 176,3 177,8 178,15 179,7 179,10 180,18 181,221 182,92 183,315 183,43 184,144 184,11 185,317 185,57 186,23 187,23 188,2 189,8 189,2 190,3 191,8 193,26 193,4 194,29 195,27 196,7 196,2 196,3 197,62 197,10 198,234 199,625 200,10 201,2 201,3 202,2 207,3 208,9 208,3 209,10 209,2 210,20 210,2 211,13 212,9 213,67 214,2 223,7 225,12 226,3 226,2 227,2 228,3 228,10 240,3 241,16 256,1
##END=