##TITLE=Nystatin
##ORIGIN=Beck B, Stravs M, Schymanski E, Singer H, Department of Environmental Chemistry, Eawag
##MW=925.50350
##MOLFORM=C47H75NO17
##GROUP=N/A; Environmental Standard
##NPOINTS=619
##JCAMP-DX=4.24
##DATA TYPE=MASS SPECTRUM
##XUNITS=M/Z
##YUNITS=RELATIVE INTENSITY
##XFACTOR=1
##YFACTOR=1
##FIRSTX=65
##LASTX=691
##FIRSTY=35
##MINX=65
##MAXX=691
##MINY=4
##MAXY=999
##PEAK TABLE=(XY..XY)65,35 67,337 69,84 69,202 71,16 71,260 73,6 74,4 77,24 79,496 81,284 81,364 83,76 83,71 84,22 85,110 85,96 87,17 89,36 91,534 93,842 95,36 95,464 95,410 97,156 97,112 97,108 99,273 100,5 101,6 101,48 103,39 105,713 106,8 107,295 107,999 108,27 109,114 109,650 110,25 111,135 111,107 113,55 113,199 113,64 115,60 115,52 116,4 117,541 118,27 119,80 119,585 120,30 121,43 121,275 121,455 122,9 122,7 123,351 123,171 123,209 125,25 125,86 125,225 127,30 127,35 128,42 129,76 129,392 130,19 130,10 131,78 131,587 132,23 133,318 133,407 134,8 134,16 135,85 135,271 135,698 136,9 136,33 137,219 137,98 137,42 139,80 139,192 139,45 141,164 141,149 141,27 142,9 143,398 144,16 144,5 145,137 145,513 146,7 146,27 146,6 147,85 147,315 147,253 148,8 148,6 149,171 149,122 149,76 151,98 151,292 151,237 152,4 153,55 153,36 153,43 153,5 155,149 155,309 156,17 156,12 157,127 157,21 157,354 159,21 159,29 159,140 159,299 161,126 161,107 161,556 162,6 162,33 163,40 163,216 163,66 163,40 165,93 165,38 165,170 165,8 166,6 167,361 167,173 168,8 169,31 169,88 169,376 171,168 171,341 173,104 173,183 173,206 174,6 175,30 175,274 175,56 175,89 176,18 177,47 177,83 177,72 177,5 178,6 179,145 179,112 179,54 181,21 181,36 181,96 181,258 183,115 183,24 183,283 184,20 185,40 185,60 185,142 185,247 186,15 187,113 187,111 187,133 189,35 189,215 189,36 189,24 190,7 191,184 191,161 192,7 193,283 193,128 194,14 194,6 195,21 195,68 195,22 195,238 196,5 197,17 197,141 197,190 197,213 198,6 199,135 199,51 199,103 199,216 200,7 201,31 201,152 201,53 201,92 203,65 203,15 203,45 203,17 203,6 204,4 205,51 205,115 205,23 206,7 207,51 207,38 207,170 207,179 208,5 208,7 209,253 209,86 209,71 209,176 210,6 211,49 211,128 211,95 211,163 212,9 213,105 213,48 213,146 214,4 215,26 215,29 215,205 215,11 215,41 216,5 217,181 217,59 217,36 217,16 218,8 219,36 219,16 219,176 219,124 221,20 221,88 221,185 223,34 223,8 223,95 223,135 225,141 225,167 225,66 225,137 226,6 227,26 227,118 227,8 227,46 227,68 229,50 229,42 229,24 229,5 230,6 231,65 231,76 231,6 232,8 233,15 233,58 233,183 233,117 235,21 235,152 235,77 235,57 235,110 237,59 237,76 237,68 237,92 238,4 239,14 239,132 239,61 239,82 240,7 241,61 241,73 241,25 241,23 243,195 243,36 243,15 243,28 244,18 244,9 245,20 245,52 245,70 247,23 247,61 247,91 249,45 249,40 249,77 249,90 251,91 251,110 251,57 251,81 253,28 253,73 253,73 253,30 253,38 255,57 255,44 255,29 255,20 256,5 257,13 257,112 257,53 257,6 257,8 258,7 259,42 259,42 259,29 259,90 260,15 261,26 261,469 261,92 261,82 262,30 263,77 263,23 263,70 263,79 265,8 265,91 265,39 265,67 267,136 267,6 267,12 267,67 267,35 267,31 269,93 269,27 269,23 270,4 271,25 271,27 271,44 273,40 273,6 273,50 275,21 275,46 275,58 275,57 277,55 277,79 277,47 277,37 279,743 279,71 281,55 281,39 281,9 282,5 283,49 283,40 283,16 283,7 285,160 285,26 285,15 285,62 286,5 287,16 287,39 287,42 287,34 289,24 289,52 289,9 289,46 289,46 291,6 291,67 291,39 291,60 293,39 293,22 293,43 293,26 293,23 295,18 295,13 295,64 295,22 295,26 295,8 297,972 298,85 299,30 299,34 301,43 301,35 301,23 301,51 301,26 302,6 303,180 303,59 303,46 305,23 305,20 305,46 305,30 305,16 307,50 307,9 307,33 307,5 309,35 309,26 309,5 309,26 311,28 311,19 311,21 311,28 311,7 311,5 313,54 313,14 313,41 313,37 313,34 315,30 315,26 316,7 317,8 317,62 317,28 317,29 319,58 319,30 319,51 319,6 321,204 321,26 321,10 323,15 323,23 323,15 323,4 325,7 325,21 325,23 325,17 327,25 327,24 327,31 327,7 329,14 329,42 329,17 329,7 331,90 331,48 333,29 333,18 335,20 335,38 337,69 337,24 337,20 337,8 339,41 339,22 339,12 339,5 341,14 341,27 341,17 341,9 343,5 343,42 343,19 343,15 345,35 345,24 345,16 347,40 347,27 349,132 349,28 349,9 350,7 351,19 353,16 353,24 355,7 357,16 359,28 359,25 359,23 361,39 361,16 361,5 363,27 363,18 365,27 367,47 369,24 371,27 373,21 373,8 375,8 375,11 377,37 379,16 379,12 379,6 381,6 385,8 387,23 387,33 389,8 391,7 391,9 393,6 393,4 397,17 397,12 397,6 399,17 399,8 401,19 401,9 403,7 403,4 405,9 405,29 413,17 413,21 415,21 423,4 425,12 427,14 429,19 429,5 431,9 431,5 439,20 441,22 443,6 445,6 445,5 453,7 455,6 455,5 459,7 471,6 475,5 477,7 477,8 481,8 483,4 483,7 485,6 493,8 499,19 501,5 507,9 509,7 515,5 517,6 525,26 527,6 535,6 537,5 543,7 553,8 555,4 571,24 581,5 589,5 601,5 611,16 627,7 629,17 673,49 674,7 691,24
##END=