##TITLE=trans-Dehydroandosterone
##ORIGIN=Beck B, Stravs M, Schymanski E, Singer H, Department of Environmental Chemistry, Eawag
##MW=288.20893
##MOLFORM=C19H28O2
##GROUP=N/A; Environmental Standard
##NPOINTS=103
##JCAMP-DX=4.24
##DATA TYPE=MASS SPECTRUM
##XUNITS=M/Z
##YUNITS=RELATIVE INTENSITY
##XFACTOR=1
##YFACTOR=1
##FIRSTX=53
##LASTX=271
##FIRSTY=1
##MINX=53
##MAXX=271
##MINY=1
##MAXY=999
##PEAK TABLE=(XY..XY)53,1 65,1 67,71 69,37 71,22 71,1 77,2 79,65 81,290 83,18 83,37 85,9 91,96 93,107 95,7 95,100 97,105 99,6 103,1 105,146 107,116 109,11 109,44 111,8 115,6 117,73 119,114 121,5 121,83 123,15 123,9 125,2 128,10 129,48 130,2 131,202 133,363 135,148 137,13 139,1 141,32 142,12 143,116 144,2 145,353 147,168 149,11 149,15 151,18 155,77 156,11 157,369 158,2 159,311 161,15 161,26 163,39 167,2 168,9 169,103 170,2 171,315 172,1 173,144 175,21 175,19 177,8 181,3 182,29 183,178 184,12 185,144 186,7 187,28 189,8 189,12 191,2 195,6 196,14 197,490 198,30 199,23 201,2 201,28 203,5 209,8 210,2 211,189 212,8 213,999 215,15 223,8 224,19 225,128 227,13 229,29 229,1 231,68 237,1 238,29 251,1 253,343 271,59
##END=