##TITLE=l-Methionine, N-(m-toluoyl)-, methyl ester
##JCAMP-DX=4.24
##DATA TYPE=MASS SPECTRUM
##ORIGIN=Zaikin V.G., TIPS RAS, Moscow, Russia
##OWNER=NIST Mass Spectrometry Data Center
Collection (C) 2014 copyright by the U.S. Secretary of Commerce
on behalf of the United States of America. All rights reserved.
##$NIST MASS SPEC NO=299641
##MOLFORM=C14 H19 N O3 S
##MW=281
##$NIST SOURCE=MSDC
##XUNITS=M/Z
##YUNITS=RELATIVE INTENSITY
##XFACTOR=1
##YFACTOR=1
##FIRSTX=26
##LASTX=283
##FIRSTY=30
##MAXX=283
##MINX=26
##MAXY=9999
##MINY=10
##NPOINTS=117
##PEAK TABLE=(XY..XY)
26,30 27,50 29,30 31,10
33,10 35,20 36,10 38,10
39,120 40,10 41,130 42,20
43,10 44,80 45,80 46,30
47,90 48,40 49,20 50,30
51,50 52,10 53,10 54,20
55,20 56,100 57,20 58,10
59,80 60,10 61,280 62,30
63,110 64,30 65,591 66,30
73,10 74,80 75,200 76,20
77,30 78,10 85,10 86,20
87,50 88,260 89,230 90,210
91,2593 92,240 93,30 99,10
100,10 101,10 102,20 103,10
104,10 105,20 109,20 114,180
115,20 116,20 117,60 118,110
119,9999 120,1011 121,70 127,10
131,20 132,20 133,10 134,10
135,10 136,120 137,10 141,30
144,10 145,10 146,80 147,961
148,110 149,10 160,30 161,20
162,571 163,40 164,20 165,30
173,30 174,160 175,2983 176,360
177,30 180,10 187,10 188,310
189,140 190,60 191,10 192,10
201,20 202,30 206,60 207,4104
208,501 219,10 220,611 221,80
222,190 223,20 233,10 234,140
235,20 249,30 250,20 282,70
283,20##GROUP=Hydrocarbons
##END=
